(declare-const |phi_tmp___2:26:33| Int)
(declare-const |phi___retres3:107:114| Int)
(declare-const |x':90:100:104:112| Int)
(declare-const |havoc:2| Int)
(declare-const |K:96:97:101:109| Int)
(declare-const |phi_tmp___1:25| Int)
(declare-const |__cost':89:98:102:110| Int)
(declare-const |havoc:0| Int)
(declare-const |phi_y:105:116| Int)
(declare-const |y':91:99:103:111| Int)
(declare-const |phi___cost:108:113| Int)
(declare-const |phi___retres3:84:117| Int)
(declare-const |phi_x:106:115| Int)
(assert (and (or (and (< (- |havoc:0|) 0) (< (- |havoc:2|) 0)
                        (or (not (<= (- |K:96:97:101:109|) 0))
                              (= (+ |__cost':89:98:102:110|
                                      (- |K:96:97:101:109|)) 0))
                        (or (not (<= (- |K:96:97:101:109|) 0))
                              (<= (+ |x':90:100:104:112| |y':91:99:103:111|
                                       |K:96:97:101:109| (- |havoc:2|)
                                       (- |havoc:0|)) 0))
                        (or (not (<= (- |K:96:97:101:109|) 0))
                              (<= (+ |x':90:100:104:112| (- |havoc:0|)) 0))
                        (or (not (<= (- |K:96:97:101:109|) 0))
                              (<= (+ |y':91:99:103:111| (- |havoc:2|)) 0))
                        (or (and (= |K:96:97:101:109| 0)
                                   (= (+ (- |y':91:99:103:111|) |havoc:2|) 0)
                                   (= (+ (- |x':90:100:104:112|) |havoc:0|) 0)
                                   (= (- |__cost':89:98:102:110|) 0))
                              (and (<= (+ (- |K:96:97:101:109|) 1) 0)
                                     (<= (+ (- |havoc:2|) 1) 0)
                                     (<= (+ (- |havoc:0|) 1) 0)
                                     (<= (+ (- |havoc:2|) (- |havoc:0|) 3) 0)
                                     (<= (+ (- |__cost':89:98:102:110|) 1) 0)
                                     (<= (+ (- |y':91:99:103:111|) 1) 0)
                                     (<= (+ (- |x':90:100:104:112|) 1) 0)))
                        (<= (- |K:96:97:101:109|) 0)
                        (< (- |x':90:100:104:112|) 0)
                        (< (- |y':91:99:103:111|) 0)
                        (<= (- |__cost':89:98:102:110|) 0)
                        (<= (+ (- |__cost':89:98:102:110|) -1) 0)
                        (<= (+ |x':90:100:104:112| (- |y':91:99:103:111|)) 0)
                        (<= (+ (- |x':90:100:104:112|) |y':91:99:103:111|) 0)
                        (= (+ (- |phi___cost:108:113|)
                                |__cost':89:98:102:110| 1) 0)
                        (= (+ (- |phi___retres3:107:114|) |x':90:100:104:112|) 0)
                        (= (+ (- |phi_x:106:115|) |x':90:100:104:112|) 0)
                        (= (+ (- |phi_y:105:116|) |y':91:99:103:111|) 0))
                   (and (or (and (< (- |havoc:0|) 0) (<= |havoc:2| 0)
                                   (= (+ (- |phi___retres3:84:117|) |havoc:0|) 0))
                              (and (<= |havoc:0| 0)
                                     (= (+ (- |phi___retres3:84:117|)
                                             |havoc:2|) 0)))
                          (= (- |phi___cost:108:113|) 0)
                          (= (+ |phi___retres3:84:117|
                                  (- |phi___retres3:107:114|)) 0)
                          (= (+ (- |phi_x:106:115|) |havoc:0|) 0)
                          (= (+ (- |phi_y:105:116|) |havoc:2|) 0)))
               (or (and (<= |havoc:0| 0) (= (- |phi_tmp___1:25|) 0))
                     (and (< (- |havoc:0|) 0)
                            (= (+ (- |phi_tmp___1:25|) |havoc:0|) 0)))
               (or (and (<= |havoc:2| 0) (= (- |phi_tmp___2:26:33|) 0))
                     (and (< (- |havoc:2|) 0)
                            (= (+ (- |phi_tmp___2:26:33|) |havoc:2|) 0)))
               (not (<= (+ (- |phi_tmp___2:26:33|) (- |phi_tmp___1:25|)
                             |phi___cost:108:113|) 0))))
(check-sat)
